20
20
395
390
373
361
345
343
340
325
278
273
213
203
135
117
111
79
51
36
26
6
71	331
818	879
839	886
591	602
409	353
945	809
430	364
585	387
60	38
138	87
23	135
86	436
50	234
187	454
337	583
88	141
671	686
923	939
588	428
979	707
